24
Optimized geometry phen-m1_geom @def2-svp/pbe0
C          3.58331        1.24707        0.00000
C          2.91547        0.01323        0.00000
C          1.51246        0.00541        0.00000
C          0.74696        1.17638        0.00000
C          1.43519        2.44922        0.00000
C          2.86792        2.42958        0.00000
C          0.70193        3.64770        0.00000
C         -0.70458        3.64018        0.00000
C         -1.42767        2.43563        0.00000
C         -2.86012        2.40300        0.00000
C         -3.56398        1.21364        0.00000
C         -2.88536       -0.01439        0.00000
C         -1.48244       -0.00911        0.00000
C         -0.72816        1.16913        0.00000
H          3.39476        3.38983        0.00000
H          4.67905        1.27687        0.00000
H          3.47330       -0.92715        0.00000
H          1.00283       -0.96178        0.00000
H          1.24825        4.59667        0.00000
H         -1.25985        4.58387        0.00000
H         -3.39592        3.35830        0.00000
H         -4.65992        1.23341        0.00000
H         -3.43461       -0.95981        0.00000
H         -0.96376       -0.97149        0.00000
